proyfinal/src/viki/013/experimentInOfficeAgust.take6.output/0cc2ce0a-ae01-4569-9f2b-1fb18b5c3e32.als.out
Reading from standard input... Use '--help' for help.
============================[ Problem Statistics ]=============================
|                                                                             |
|  Number of variables:         87638                                         |
|  Number of clauses:          161767                                         |
|  Parse time:                   0.03 s                                       |
|                                                                             |
============================[ Search Statistics ]==============================
| Conflicts |          ORIGINAL         |          LEARNT          | Progress |
|           |    Vars  Clauses Literals |    Limit  Clauses Lit/Cl |          |
===============================================================================
|       100 |   63860   110444   276133 |    40496      100     16 | 27.132 % |
|       250 |   63784   110128   275410 |    44545      246     28 | 27.219 % |
|       475 |   63726   109900   274855 |    49000      469     46 | 27.285 % |
|       812 |   63726   109900   274855 |    53900      806     48 | 27.285 % |
|      1318 |   63726   109900   274855 |    59290     1312     72 | 27.285 % |
|      2077 |   63726   109900   274855 |    65219     2071     74 | 27.285 % |
|      3216 |   63726   109900   274855 |    71741     3210     73 | 27.285 % |
|      4924 |   63725   109856   274765 |    78915     4912     87 | 27.286 % |
|      7486 |   63703   109768   274549 |    86807     7473     87 | 27.311 % |
|     11330 |   50128    69231   174800 |    95487    10087     83 | 42.801 % |
|     17096 |   49862    68270   172485 |   105036    15091     72 | 43.105 % |
===============================================================================
restarts              : 63
conflicts             : 18334          (6388 /sec)
decisions             : 57242          (0.00 % random) (19945 /sec)
propagations          : 28036035       (9768909 /sec)
conflict literals     : 1264630        (51.39 % deleted)
Memory used           : 28.13 MB
CPU time              : 2.86992 s

INDETERMINATE
